c   #vars: 121   #clauses: 557   #literals: 1530
c 
p cnf 121 557
-1 -2 0
-3 -4 0
-5 -6 0
-7 -8 0
-9 -10 0
-12 -13 0
15 40 41 -76 0
32 74 75 -84 0
-16 -17 0
-18 -19 0
-20 -21 0
-22 -23 0
-24 -25 0
-26 -27 0
-28 -29 0
-30 -31 0
35 36 39 -68 0
-33 -34 0
-35 -36 0
-37 -38 0
24 25 42 -114 0
-40 -41 0
43 70 71 -111 0
48 -49 103 104 0
-44 -45 0
-46 -47 0
55 -62 99 100 0
-49 -50 0
-51 -52 0
-53 -54 0
7 8 -75 76 0
62 63 68 69 0
53 54 64 65 0
-56 -57 0
-58 -59 0
-60 -61 0
-62 -63 0
-64 -65 0
-66 -67 0
-68 -69 0
-70 -71 0
-72 -73 0
-74 -75 0
24 25 -72 81 0
24 25 51 52 0
-77 -78 0
-79 -80 0
51 52 92 -109 0
12 13 105 106 0
-35 39 68 69 0
-82 -83 0
-84 -85 0
-86 -87 0
-88 -89 0
-90 -91 0
33 34 -111 121 0
-93 -94 0
-95 -96 0
-97 -98 0
-99 -100 0
-101 -102 0
-103 -104 0
-105 -106 0
-107 -108 0
-109 -110 0
1 2 109 110 0
-111 -112 0
-113 -114 0
-115 -116 0
9 10 16 17 0
-117 -118 0
68 69 105 106 0
3 4 86 87 0
-119 -120 0
24 25 35 36 0
-2 -11 0
7 8 18 19 0
-1 -28 0
-2 -29 0
7 8 -15 76 0
-2 -55 0
-1 -97 0
-2 -98 0
109 110 111 112 0
-1 -109 0
-2 -110 0
-1 -119 0
-2 -120 0
-3 -7 0
-4 -8 0
-3 -22 0
-4 -23 0
33 34 111 112 0
-3 -28 0
-4 -29 0
12 13 115 116 0
-3 -72 0
-4 -73 0
12 13 79 80 0
-3 -77 0
-4 -78 0
70 71 88 89 0
-3 -86 0
-4 -87 0
-3 -93 0
-4 -94 0
11 -12 33 34 0
-5 -44 0
-6 -45 0
1 2 97 98 0
-5 -62 0
-6 -63 0
26 27 90 91 0
-5 -74 0
-6 -75 0
16 17 49 50 0
-5 -77 0
-6 -78 0
72 73 103 104 0
-7 -18 0
-8 -19 0
1 2 28 29 0
-7 -44 0
-8 -45 0
37 38 97 98 0
-7 -76 0
24 25 -46 81 0
28 29 95 96 0
-7 -97 0
-8 -98 0
22 23 115 116 0
28 29 37 38 0
14 -26 95 96 0
68 69 86 87 0
15 -37 40 41 0
-10 -14 0
44 45 97 98 0
-9 -16 0
-10 -17 0
-9 -46 0
-10 -47 0
-1 11 33 34 0
-9 -101 0
-10 -102 0
14 26 27 -95 0
-9 -113 0
-10 -114 0
-11 -13 0
26 27 84 85 0
9 10 14 -26 0
-11 -34 0
1 2 11 -33 0
16 17 101 102 0
-1 55 99 100 0
-13 -48 0
26 27 119 120 0
-12 -58 0
-13 -59 0
79 80 86 87 0
-12 -79 0
-13 -80 0
30 31 77 78 0
-12 -105 0
-13 -106 0
-12 -109 0
-13 -110 0
88 89 119 120 0
-12 -115 0
-13 -116 0
5 6 44 45 0
-24 72 73 81 0
-14 -27 0
58 59 60 61 0
-46 72 73 81 0
-14 -96 0
28 29 113 114 0
77 78 105 106 0
32 -66 74 75 0
-15 -38 0
32 66 67 -84 0
-15 -41 0
30 31 51 52 0
32 66 67 -74 0
46 47 -72 81 0
24 25 107 108 0
-16 -49 0
-17 -50 0
-9 14 26 27 0
-16 -95 0
-17 -96 0
1 2 55 -62 0
-16 -101 0
-17 -102 0
12 13 48 -103 0
-18 -40 0
-19 -41 0
56 57 97 98 0
-18 -56 0
-19 -57 0
72 73 119 120 0
-18 -101 0
-19 -102 0
3 4 72 73 0
-20 -40 0
-21 -41 0
53 54 119 120 0
-20 -46 0
-21 -47 0
46 47 51 52 0
-20 -60 0
-21 -61 0
12 13 109 110 0
-20 -79 0
-21 -80 0
-22 -49 0
-23 -50 0
-22 -115 0
-23 -116 0
-22 -117 0
-23 -118 0
51 52 90 91 0
1 2 11 -12 0
30 31 105 106 0
35 36 95 96 0
-24 -30 0
-25 -31 0
9 10 46 47 0
-24 -35 0
-25 -36 0
3 4 93 94 0
-24 -42 0
43 70 71 -103 0
53 54 93 94 0
-24 -51 0
-25 -52 0
24 25 68 69 0
-24 -68 0
-25 -69 0
26 27 68 69 0
-24 -72 0
-25 -73 0
5 6 77 78 0
51 52 -72 92 0
-25 -81 0
22 23 117 118 0
-24 -107 0
-25 -108 0
26 27 37 38 0
-26 -37 0
-27 -38 0
37 38 79 80 0
-26 -68 0
-27 -69 0
40 41 86 87 0
-26 -79 0
-27 -80 0
84 85 90 91 0
-26 -84 0
-27 -85 0
97 98 101 102 0
-26 -90 0
-27 -91 0
3 4 28 29 0
-26 -119 0
-27 -120 0
33 34 82 83 0
-28 -37 0
-29 -38 0
39 42 -68 -114 0
-28 -64 0
-29 -65 0
24 25 30 31 0
-28 -95 0
-29 -96 0
-28 -113 0
-29 -114 0
-35 39 42 -114 0
-30 -51 0
-31 -52 0
64 65 115 116 0
-30 -77 0
-31 -78 0
1 2 55 -99 0
-30 -101 0
-31 -102 0
77 78 103 104 0
-30 -105 0
-31 -106 0
24 25 72 73 0
35 36 39 -42 0
-32 -67 0
62 63 72 73 0
43 -70 103 104 0
-32 -75 0
53 54 77 78 0
43 103 104 -111 0
-32 -85 0
20 21 40 41 0
-33 -60 0
-34 -61 0
-33 -82 0
-34 -83 0
18 19 40 41 0
-33 -88 0
-34 -89 0
-33 -111 0
-34 -112 0
12 13 48 -49 0
-34 -121 0
-25 39 42 -68 0
24 25 -39 42 0
-36 -39 0
20 21 46 47 0
-35 -88 0
-36 -89 0
37 38 72 73 0
-35 -95 0
-36 -96 0
-35 -113 0
-36 -114 0
12 13 58 59 0
-37 -72 0
-38 -73 0
64 65 86 87 0
-37 -79 0
-38 -80 0
58 59 115 116 0
-37 -97 0
-38 -98 0
30 31 101 102 0
-37 -99 0
-38 -100 0
93 94 115 116 0
-39 42 113 114 0
43 -103 111 112 0
68 69 88 89 0
-25 42 113 114 0
-39 -69 0
40 41 44 45 0
-40 -44 0
-41 -45 0
7 8 44 45 0
-40 -56 0
-41 -57 0
44 45 90 91 0
-40 -86 0
-41 -87 0
35 36 113 114 0
-42 -113 0
43 -70 111 112 0
9 10 113 114 0
-12 48 103 104 0
-43 -71 0
51 52 93 94 0
48 49 50 -103 0
-43 -104 0
26 27 79 80 0
-12 48 49 50 0
-43 -112 0
11 12 13 -33 0
35 36 88 89 0
28 29 64 65 0
9 10 14 -95 0
-9 14 95 96 0
49 50 93 94 0
-44 -68 0
-45 -69 0
-33 58 59 121 0
-44 -90 0
-45 -91 0
49 50 117 118 0
-44 -97 0
-45 -98 0
62 63 107 108 0
-46 -51 0
-47 -52 0
5 6 62 63 0
-46 -58 0
-47 -59 0
60 61 97 98 0
-72 92 109 110 0
-47 -81 0
15 -40 -75 76 0
55 62 63 -99 0
-48 -50 0
-1 55 62 63 0
-48 -104 0
16 17 95 96 0
-49 -74 0
-50 -75 0
15 -37 -75 76 0
-49 -93 0
-50 -94 0
15 37 38 -76 0
-49 -117 0
-50 -118 0
72 73 92 -109 0
-51 -90 0
-52 -91 0
33 34 -58 121 0
-52 -92 0
-51 72 73 92 0
-51 -93 0
-52 -94 0
-53 -64 0
-54 -65 0
40 41 56 57 0
-53 -77 0
-54 -78 0
-53 -93 0
-54 -94 0
7 8 97 98 0
-53 -107 0
-54 -108 0
56 57 99 100 0
-53 -113 0
-54 -114 0
18 19 56 57 0
-53 -119 0
-54 -120 0
3 4 22 23 0
-15 74 75 76 0
-55 -63 0
58 59 107 108 0
-8 74 75 76 0
-55 -100 0
33 34 60 61 0
-56 -70 0
-57 -71 0
60 61 99 100 0
-56 -88 0
-57 -89 0
20 21 60 61 0
-56 -97 0
-57 -98 0
9 10 101 102 0
-56 -99 0
-57 -100 0
56 57 70 71 0
-58 -60 0
-59 -61 0
58 59 77 78 0
-58 -77 0
-59 -78 0
37 38 99 100 0
-58 -107 0
-59 -108 0
86 87 119 120 0
-58 -115 0
-59 -116 0
32 -66 84 85 0
-59 -121 0
-60 -97 0
-61 -98 0
18 19 101 102 0
-60 -99 0
-61 -100 0
-60 -103 0
-61 -104 0
82 83 117 118 0
-62 -68 0
-63 -69 0
-1 11 12 13 0
-62 -72 0
-63 -73 0
58 59 -111 121 0
-62 -107 0
-63 -108 0
-25 -35 39 42 0
-64 -86 0
-65 -87 0
22 23 49 50 0
-64 -115 0
-65 -116 0
5 6 74 75 0
-66 -84 0
-67 -85 0
-66 -90 0
-67 -91 0
39 -42 68 69 0
-66 -97 0
-67 -98 0
56 57 88 89 0
-68 -86 0
-69 -87 0
-68 -88 0
-69 -89 0
-68 -105 0
-69 -106 0
79 80 111 112 0
-70 -88 0
-71 -89 0
20 21 79 80 0
-70 -113 0
-71 -114 0
53 54 107 108 0
-51 92 109 110 0
-73 -81 0
3 4 77 78 0
-58 111 112 121 0
-73 -92 0
70 71 113 114 0
-72 -103 0
-73 -104 0
3 4 7 8 0
-72 -119 0
-73 -120 0
-8 15 -40 76 0
-74 -76 0
-24 46 47 81 0
53 54 113 114 0
-77 -103 0
-78 -104 0
44 45 68 69 0
-77 -105 0
-78 -106 0
66 67 97 98 0
-79 -86 0
-80 -87 0
-8 15 -37 76 0
-79 -111 0
-80 -112 0
1 2 119 120 0
82 83 84 85 0
-82 -84 0
-83 -85 0
66 67 84 85 0
-82 -109 0
-83 -110 0
115 116 117 118 0
-82 -117 0
-83 -118 0
66 67 90 91 0
-84 -90 0
-85 -91 0
33 34 88 89 0
-86 -119 0
-87 -120 0
60 61 103 104 0
-88 -119 0
-89 -120 0
32 -74 84 85 0
-33 111 112 121 0
-92 -110 0
46 47 58 59 0
-93 -115 0
-94 -116 0
82 83 109 110 0
-97 -101 0
-98 -102 0
-109 -111 0
-110 -112 0
49 50 74 75 0
-112 -121 0
15 37 38 -40 0
-115 -117 0
-116 -118 0
